p tw 50 134
e 0 4
e 0 7
e 0 9
e 0 11
e 0 12
e 0 22
e 0 34
e 0 35
e 1 9
e 1 23
e 1 31
e 1 35
e 1 41
e 2 12
e 2 21
e 2 30
e 2 31
e 2 35
e 2 36
e 2 40
e 3 6
e 3 12
e 3 17
e 3 39
e 3 40
e 4 15
e 4 42
e 5 24
e 5 27
e 6 22
e 6 24
e 6 47
e 7 8
e 7 12
e 7 18
e 7 30
e 7 31
e 7 34
e 7 38
e 7 40
e 8 11
e 8 20
e 8 22
e 8 43
e 8 45
e 8 49
e 9 27
e 9 33
e 9 35
e 9 37
e 9 38
e 10 14
e 10 31
e 10 41
e 10 47
e 11 12
e 11 25
e 11 31
e 11 32
e 11 46
e 12 30
e 12 31
e 12 39
e 13 18
e 13 36
e 13 42
e 14 31
e 14 33
e 14 44
e 15 25
e 15 26
e 15 31
e 15 48
e 16 26
e 16 32
e 16 44
e 17 20
e 17 48
e 17 49
e 18 29
e 18 35
e 18 46
e 19 23
e 19 27
e 19 28
e 19 29
e 19 42
e 19 47
e 20 38
e 20 42
e 20 43
e 21 22
e 21 23
e 22 32
e 23 30
e 23 38
e 23 43
e 24 35
e 24 43
e 24 47
e 25 40
e 26 38
e 26 41
e 27 32
e 27 44
e 27 47
e 27 49
e 28 32
e 28 49
e 29 43
e 31 35
e 31 43
e 31 44
e 32 36
e 32 37
e 33 35
e 33 41
e 34 36
e 34 40
e 34 42
e 35 40
e 35 44
e 36 40
e 37 44
e 39 48
e 40 42
e 40 47
e 40 48
e 41 45
e 42 44
e 43 45
e 44 47
e 44 48
e 45 49
